NAME :  IRP
COMMENT : 
TYPE :  CVRP
DIMENSION : 	5
EDGE_WEIGHT_TYPE : 	EUC_2D
CAPACITY : 	319
NODE_COORD_SECTION
1	113	95
2	182	3
3	423	238
4	363	368
5	188	69
DEMAND_SECTION
1	0
2	30
3	267
4	117
5	276
DEPOT_SECTION
	1
	-1
EOF
